p cnf 7230 16
-672 -1990 -2232 0
-670 -1984 -2226 0
672 -2233 0
670 -2227 0
2232 2233 0
2230 2231 0
1674 -2231 0
-1674 -2230 0
-1670 2229 0
2228 -2229 0
1670 -2228 0
2226 2227 0
1990 -2233 0
1984 -2227 0
1678 -2235 0
2224 2225 0
